51563
104,166,426,469,500,534,562,576,604,656,798,830,844,1003,1143,1274,1328,1406,1457,1819,1874,1883,1891,1940,2050,2192,2232,2291,2302,2355,2399,2400,2443,2512,2633,2685,2718,2720,2744,2812,2896,2958,2966,3032,3215,3216,3233,3375,3519,3562,3636,3641,3711,4026,4063,4080,4204,4226,4247,4276,4487,4612,4648,4757,4842,4957,4964,4975,5042,5043,5063,5223,5227,5274,5414,5491,5498,5511,5564,5894,6096,6207,6242,6376,6385,6426,6461,6566,6582,6607,6651,6711,6855,7068,7114,7117,7128,7282,7298,7509,7620,7907,7959,8187,8303,8346,8348,8352,8557,8579,8584,8774,8855,8868,8923,9145,9201,9306,9346,9354,9402,9409,9488,9536,9546,9599,9629,9666,9875,9920
